(set-info :smt-lib-version 2.6)
(set-logic QF_UF)
(set-info :source |Generator: Rodin SMT Plug-in|)
(set-info :license "https://creativecommons.org/licenses/by-nc/4.0/")
(set-info :category "industrial")
(set-info :status unsat)
(declare-sort MODE 0)
(declare-sort Z 0)
(declare-fun i1 () Bool)
(declare-fun i2 () Bool)
(declare-fun p2 () Bool)
(declare-fun a1 () Z)
(declare-fun a2 () Z)
(declare-fun b1 () Z)
(declare-fun b2 () Z)
(declare-fun cir () MODE)
(declare-fun mode () MODE)
(declare-fun r1 () Z)
(declare-fun r2 () Z)
(assert (= mode cir))
(assert i1)
(assert (not p2))
(assert (= a1 b1))
(assert (= a2 b2))
(assert (= (not i2) (= r2 b2)))
(assert (not (= r1 b1)))
(assert (not (= i2 (not (= r2 b2)))))
(check-sat)
(exit)
